decision_x1=[0,7];
decision_x2=[0,7];
decision_x3=[0,7];
decision_x4=[0,7];
decision_x5=[0,7];
decision_x6=[0,7];
decision_x7=[0,7];
decision_x8=[0,7];
decision_x9=[0,7];
decision_x10=[0,7];
decision_x11=[0,7];
decision_x12=[0,7];
decision_x13=[0,7];
decision_x14=[0,7];
decision_x15=[0,7];
decision_x16=[0,7];
decision_x17=[0,7];
decision_x18=[0,7];
random_y1=[0,7];
random_y2=[0,7];
random_y3=[0,7];
random_y4=[0,7];
random_y5=[0,7];
random_y6=[0,7];
random_y7=[0,7];
random_y8=[0,7];
constraint_x2_x1=[
0,0,1.2|
0,1,7.4|
0,2,5.9|
0,3,1|
0,4,2.4|
0,5,7.8|
0,6,7.8|
0,7,9.9|
1,0,4.2|
1,1,7.1|
1,2,4.2|
1,3,2|
1,4,1.5|
1,5,1.5|
1,6,0.24|
1,7,8.6|
2,0,3.7|
2,1,4.8|
2,2,9.6|
2,3,8.6|
2,4,6.5|
2,5,3.1|
2,6,3.8|
2,7,8.1|
3,0,9.5|
3,1,0.7|
3,2,9|
3,3,2.3|
3,4,1.4|
3,5,1.4|
3,6,3.8|
3,7,7.3|
4,0,5.9|
4,1,4.7|
4,2,5.4|
4,3,4.6|
4,4,4.8|
4,5,8.4|
4,6,5|
4,7,9.1|
5,0,2|
5,1,3.5|
5,2,3.2|
5,3,6.4|
5,4,1.7|
5,5,7.6|
5,6,5.9|
5,7,0.49|
6,0,5.3|
6,1,8.7|
6,2,9.6|
6,3,2.2|
6,4,8.7|
6,5,3.3|
6,6,6.1|
6,7,5|
7,0,2.3|
7,1,8.9|
7,2,7.6|
7,3,4.6|
7,4,4.8|
7,5,1.7|
7,6,0.099|
7,7,8.8|
];
constraint_x3_x2=[
0,0,4.5|
0,1,4.4|
0,2,9.3|
0,3,7.6|
0,4,2.9|
0,5,7.2|
0,6,7.5|
0,7,5.2|
1,0,5.9|
1,1,2.4|
1,2,2.3|
1,3,8.5|
1,4,8.5|
1,5,3.6|
1,6,0.58|
1,7,3.6|
2,0,0.55|
2,1,2.7|
2,2,5.1|
2,3,4.9|
2,4,3.2|
2,5,1.8|
2,6,0.67|
2,7,8.9|
3,0,0.39|
3,1,7.6|
3,2,4|
3,3,3.2|
3,4,8.4|
3,5,7.6|
3,6,2.9|
3,7,8.7|
4,0,4.7|
4,1,5.2|
4,2,9.8|
4,3,4.3|
4,4,4.1|
4,5,4.6|
4,6,5.6|
4,7,8.8|
5,0,7.6|
5,1,1.6|
5,2,3.2|
5,3,6.9|
5,4,0.84|
5,5,9.8|
5,6,3.8|
5,7,9.4|
6,0,3.5|
6,1,5.1|
6,2,4|
6,3,1.6|
6,4,8.2|
6,5,0.034|
6,6,8.9|
6,7,3.9|
7,0,2.9|
7,1,7.1|
7,2,7.6|
7,3,5.7|
7,4,2.2|
7,5,3.7|
7,6,7.9|
7,7,7|
];
constraint_x4_x3=[
0,0,4.9|
0,1,5|
0,2,2.4|
0,3,0.15|
0,4,1|
0,5,6.6|
0,6,5.7|
0,7,9.3|
1,0,7.7|
1,1,1.1|
1,2,5.6|
1,3,1.9|
1,4,7.2|
1,5,9.2|
1,6,5.5|
1,7,5.8|
2,0,4.2|
2,1,0.69|
2,2,1.8|
2,3,2.8|
2,4,1.2|
2,5,4.4|
2,6,3.6|
2,7,1.8|
3,0,4|
3,1,9.1|
3,2,6|
3,3,2.8|
3,4,0.33|
3,5,2.4|
3,6,2.9|
3,7,8.6|
4,0,1.8|
4,1,3.8|
4,2,3.6|
4,3,4.6|
4,4,7|
4,5,6.1|
4,6,7.2|
4,7,0.2|
5,0,3.5|
5,1,7.5|
5,2,9.3|
5,3,8|
5,4,1.2|
5,5,5.2|
5,6,5|
5,7,4.9|
6,0,7.7|
6,1,3.9|
6,2,6.4|
6,3,1.7|
6,4,7.9|
6,5,7.3|
6,6,5.6|
6,7,7.9|
7,0,6.2|
7,1,1.6|
7,2,8|
7,3,6.7|
7,4,3.9|
7,5,0.29|
7,6,4.3|
7,7,9.4|
];
constraint_x5_x1=[
0,0,5.7|
0,1,0.64|
0,2,6.9|
0,3,1.5|
0,4,6|
0,5,4.5|
0,6,4.8|
0,7,6.7|
1,0,7.4|
1,1,6.1|
1,2,9.2|
1,3,0.15|
1,4,4.5|
1,5,0.91|
1,6,3.9|
1,7,2.1|
2,0,7.1|
2,1,4.7|
2,2,0.53|
2,3,5|
2,4,7.2|
2,5,4.6|
2,6,9.5|
2,7,9|
3,0,2.6|
3,1,8.1|
3,2,4.5|
3,3,5|
3,4,1.2|
3,5,7.6|
3,6,6.5|
3,7,2.8|
4,0,3.4|
4,1,6.3|
4,2,4.9|
4,3,9.5|
4,4,4.5|
4,5,9.8|
4,6,10|
4,7,0.44|
5,0,8.1|
5,1,3.7|
5,2,6.1|
5,3,3.9|
5,4,6.7|
5,5,8.5|
5,6,8.3|
5,7,7.1|
6,0,7.9|
6,1,1.3|
6,2,5.2|
6,3,7.3|
6,4,3.3|
6,5,3.1|
6,6,5.9|
6,7,9.2|
7,0,8.2|
7,1,6.8|
7,2,7.6|
7,3,3.1|
7,4,8.3|
7,5,2.8|
7,6,0.45|
7,7,0.03|
];
constraint_x6_x2=[
0,0,9.5|
0,1,7|
0,2,0.42|
0,3,4.2|
0,4,3.9|
0,5,2.7|
0,6,8.9|
0,7,2|
1,0,7.7|
1,1,0.44|
1,2,2.8|
1,3,4.4|
1,4,9.3|
1,5,9.4|
1,6,1.7|
1,7,6.1|
2,0,2.9|
2,1,7.9|
2,2,6.7|
2,3,9.2|
2,4,8.2|
2,5,2.1|
2,6,4.6|
2,7,3.2|
3,0,7.9|
3,1,7.5|
3,2,7.7|
3,3,2.9|
3,4,6.1|
3,5,1.1|
3,6,6.2|
3,7,7.2|
4,0,8.7|
4,1,7|
4,2,4.9|
4,3,6.6|
4,4,5|
4,5,0.016|
4,6,8.3|
4,7,2.6|
5,0,8.1|
5,1,1|
5,2,6.6|
5,3,2.8|
5,4,7.6|
5,5,4.1|
5,6,9.8|
5,7,8.2|
6,0,4.4|
6,1,6.7|
6,2,7.5|
6,3,2.8|
6,4,8|
6,5,4|
6,6,2.7|
6,7,9.7|
7,0,8.9|
7,1,1.4|
7,2,6.9|
7,3,2|
7,4,0.05|
7,5,0.043|
7,6,3.8|
7,7,1.6|
];
constraint_x6_x5=[
0,0,4.2|
0,1,6.1|
0,2,5.5|
0,3,0.033|
0,4,4.6|
0,5,7.8|
0,6,2.8|
0,7,4.8|
1,0,1.3|
1,1,5.4|
1,2,0.72|
1,3,0.21|
1,4,4.7|
1,5,5.2|
1,6,8.3|
1,7,4|
2,0,9.8|
2,1,9.8|
2,2,4|
2,3,9.4|
2,4,4.8|
2,5,6.4|
2,6,4.9|
2,7,3|
3,0,6.8|
3,1,4.3|
3,2,9.1|
3,3,4.8|
3,4,4.5|
3,5,4.4|
3,6,6.1|
3,7,3.7|
4,0,0.39|
4,1,3.8|
4,2,4.9|
4,3,4.5|
4,4,3.3|
4,5,6.2|
4,6,9.9|
4,7,3.3|
5,0,0.14|
5,1,9.8|
5,2,9.8|
5,3,9|
5,4,5.4|
5,5,2|
5,6,8.7|
5,7,9.8|
6,0,2.2|
6,1,1.6|
6,2,8.4|
6,3,5.2|
6,4,8.2|
6,5,9.7|
6,6,3.4|
6,7,2.2|
7,0,7.6|
7,1,0.91|
7,2,3.1|
7,3,5.9|
7,4,5.3|
7,5,0.26|
7,6,6|
7,7,5.9|
];
constraint_x7_x3=[
0,0,4.9|
0,1,4.9|
0,2,6.1|
0,3,1.6|
0,4,7.9|
0,5,2.7|
0,6,10|
0,7,6.6|
1,0,6.9|
1,1,9.9|
1,2,0.6|
1,3,3.7|
1,4,7.9|
1,5,6.1|
1,6,8.3|
1,7,7.6|
2,0,5.5|
2,1,8.3|
2,2,4.3|
2,3,6.5|
2,4,6.4|
2,5,6.2|
2,6,7.7|
2,7,8.6|
3,0,8.8|
3,1,8.1|
3,2,8.5|
3,3,3.9|
3,4,6.2|
3,5,1.6|
3,6,7.3|
3,7,1.9|
4,0,8.9|
4,1,0.73|
4,2,9.4|
4,3,5|
4,4,0.81|
4,5,5.6|
4,6,8|
4,7,5|
5,0,8.1|
5,1,9.1|
5,2,5|
5,3,0.72|
5,4,1.1|
5,5,0.99|
5,6,4.3|
5,7,3.8|
6,0,6.5|
6,1,4.7|
6,2,7.8|
6,3,8.4|
6,4,3.1|
6,5,2|
6,6,1.9|
6,7,4.3|
7,0,8.3|
7,1,9.9|
7,2,1.3|
7,3,9.6|
7,4,9|
7,5,0.39|
7,6,2.6|
7,7,0.36|
];
constraint_x7_x6=[
0,0,3.5|
0,1,9|
0,2,0.41|
0,3,5.7|
0,4,3.5|
0,5,2|
0,6,0.83|
0,7,2.2|
1,0,3.9|
1,1,7.8|
1,2,6.8|
1,3,1.1|
1,4,7.4|
1,5,3.8|
1,6,7|
1,7,3.8|
2,0,5.9|
2,1,3.6|
2,2,6.8|
2,3,9.6|
2,4,6|
2,5,9.2|
2,6,7.7|
2,7,1.3|
3,0,6.2|
3,1,3|
3,2,7|
3,3,8.7|
3,4,1.6|
3,5,7.8|
3,6,4.4|
3,7,0.012|
4,0,4.4|
4,1,3.9|
4,2,0.67|
4,3,1.7|
4,4,1.3|
4,5,0.3|
4,6,3.7|
4,7,4.2|
5,0,8.9|
5,1,0.96|
5,2,2.3|
5,3,9.9|
5,4,1.2|
5,5,0.59|
5,6,8.3|
5,7,0.41|
6,0,3.1|
6,1,2.9|
6,2,1.1|
6,3,9.8|
6,4,8.7|
6,5,0.39|
6,6,5.3|
6,7,2.7|
7,0,9.5|
7,1,7.2|
7,2,2.5|
7,3,0.96|
7,4,2.3|
7,5,8.2|
7,6,9|
7,7,3.8|
];
constraint_x8_x4=[
0,0,1.2|
0,1,9.3|
0,2,5.7|
0,3,8.2|
0,4,3.6|
0,5,0.73|
0,6,9.6|
0,7,7.6|
1,0,6.8|
1,1,0.73|
1,2,1.1|
1,3,7.2|
1,4,8.9|
1,5,6.5|
1,6,5.4|
1,7,9.6|
2,0,3.9|
2,1,6.1|
2,2,9.4|
2,3,2.7|
2,4,4.9|
2,5,2.7|
2,6,6.1|
2,7,9.1|
3,0,4.5|
3,1,1|
3,2,6.5|
3,3,7.1|
3,4,1.9|
3,5,1.9|
3,6,7.8|
3,7,0.95|
4,0,2.2|
4,1,9.4|
4,2,8.1|
4,3,9.5|
4,4,0.64|
4,5,5.6|
4,6,8.3|
4,7,9|
5,0,4.7|
5,1,3.9|
5,2,4.3|
5,3,1.8|
5,4,7.8|
5,5,7|
5,6,7.4|
5,7,0.52|
6,0,0.91|
6,1,10|
6,2,1.4|
6,3,6.9|
6,4,6.1|
6,5,8.3|
6,6,9|
6,7,8.6|
7,0,6.8|
7,1,5.5|
7,2,5.1|
7,3,4.8|
7,4,0.1|
7,5,8.8|
7,6,7.2|
7,7,8.2|
];
constraint_x8_x7=[
0,0,0.3|
0,1,3|
0,2,6.5|
0,3,8|
0,4,1.9|
0,5,7.4|
0,6,8|
0,7,0.68|
1,0,3.4|
1,1,5|
1,2,9.4|
1,3,1.8|
1,4,4.1|
1,5,8.2|
1,6,0.38|
1,7,7|
2,0,7.3|
2,1,0.35|
2,2,8.1|
2,3,5.1|
2,4,6.3|
2,5,1.8|
2,6,6.8|
2,7,6.1|
3,0,3.4|
3,1,7.8|
3,2,4.6|
3,3,8.4|
3,4,3|
3,5,6.9|
3,6,5.6|
3,7,7.5|
4,0,5.6|
4,1,4.9|
4,2,9.2|
4,3,7.7|
4,4,2|
4,5,1.4|
4,6,7.7|
4,7,4.5|
5,0,6.5|
5,1,7.6|
5,2,8.9|
5,3,1.9|
5,4,2.2|
5,5,0.89|
5,6,5.1|
5,7,7.5|
6,0,4.9|
6,1,0.12|
6,2,5.9|
6,3,2.7|
6,4,7.2|
6,5,3|
6,6,5.5|
6,7,5.9|
7,0,9.8|
7,1,9.5|
7,2,2.7|
7,3,9|
7,4,1.5|
7,5,3.8|
7,6,0.73|
7,7,3.3|
];
constraint_x9_x5=[
0,0,5.6|
0,1,6.6|
0,2,0.84|
0,3,3|
0,4,7.5|
0,5,0.12|
0,6,6.6|
0,7,6.8|
1,0,1.9|
1,1,1.5|
1,2,0.93|
1,3,3.1|
1,4,7.7|
1,5,6.7|
1,6,3.7|
1,7,1.6|
2,0,6.4|
2,1,6.7|
2,2,6.1|
2,3,8.9|
2,4,6.1|
2,5,1.3|
2,6,2.5|
2,7,4|
3,0,6.6|
3,1,9.8|
3,2,8.8|
3,3,3.7|
3,4,4.2|
3,5,5.6|
3,6,1.6|
3,7,1.2|
4,0,9.6|
4,1,0.36|
4,2,9.3|
4,3,10|
4,4,4.8|
4,5,9.6|
4,6,7.1|
4,7,1.6|
5,0,7.3|
5,1,7.8|
5,2,7.3|
5,3,0.79|
5,4,9.2|
5,5,7.7|
5,6,6.2|
5,7,2.2|
6,0,6|
6,1,7|
6,2,8.2|
6,3,9.9|
6,4,4.4|
6,5,3.4|
6,6,8.7|
6,7,4.1|
7,0,7.3|
7,1,8.1|
7,2,7.6|
7,3,2.2|
7,4,3.8|
7,5,4.7|
7,6,6.8|
7,7,0.84|
];
constraint_x10_x6=[
0,0,3.2|
0,1,5.3|
0,2,1.5|
0,3,2.2|
0,4,6.8|
0,5,7.8|
0,6,8.8|
0,7,5.3|
1,0,3.3|
1,1,2.7|
1,2,0.99|
1,3,6.3|
1,4,6|
1,5,5.9|
1,6,1.8|
1,7,7.2|
2,0,9.2|
2,1,9.9|
2,2,1.7|
2,3,2.4|
2,4,5.3|
2,5,5.5|
2,6,8.7|
2,7,4.4|
3,0,6.1|
3,1,4.8|
3,2,8.7|
3,3,4.4|
3,4,1.3|
3,5,4.3|
3,6,7.6|
3,7,7.3|
4,0,9.9|
4,1,9.9|
4,2,8.3|
4,3,5.9|
4,4,9.6|
4,5,1.7|
4,6,4.4|
4,7,6|
5,0,6.9|
5,1,2.1|
5,2,8.4|
5,3,1.1|
5,4,9.1|
5,5,8.5|
5,6,2.8|
5,7,3.6|
6,0,0.43|
6,1,2.6|
6,2,4.5|
6,3,9|
6,4,2.5|
6,5,0.46|
6,6,6.8|
6,7,6.7|
7,0,4.4|
7,1,7.1|
7,2,7.5|
7,3,0.83|
7,4,0.97|
7,5,5.1|
7,6,4|
7,7,4.9|
];
constraint_x10_x9=[
0,0,7.8|
0,1,7.6|
0,2,4.3|
0,3,3.8|
0,4,6|
0,5,8.7|
0,6,9.4|
0,7,4.2|
1,0,7.1|
1,1,8.2|
1,2,8.8|
1,3,9.1|
1,4,8.4|
1,5,6.8|
1,6,2.4|
1,7,7.7|
2,0,6.6|
2,1,8.8|
2,2,1.9|
2,3,5.4|
2,4,2.5|
2,5,7.7|
2,6,4.6|
2,7,0.16|
3,0,5.9|
3,1,0.57|
3,2,5.9|
3,3,2.3|
3,4,5|
3,5,3.4|
3,6,1.2|
3,7,5.6|
4,0,7.7|
4,1,4.1|
4,2,6.3|
4,3,3.1|
4,4,8.4|
4,5,9|
4,6,4.6|
4,7,0.46|
5,0,2.4|
5,1,9.7|
5,2,5.1|
5,3,9.8|
5,4,1.4|
5,5,7.9|
5,6,6.1|
5,7,5|
6,0,8.6|
6,1,5|
6,2,6.8|
6,3,8.1|
6,4,9.3|
6,5,1.7|
6,6,3.4|
6,7,1.7|
7,0,8|
7,1,4.2|
7,2,4.5|
7,3,5|
7,4,6.7|
7,5,0.3|
7,6,2.1|
7,7,7.5|
];
constraint_x11_x7=[
0,0,1.6|
0,1,7.9|
0,2,2.6|
0,3,8.5|
0,4,6.8|
0,5,5.7|
0,6,8.6|
0,7,5.2|
1,0,1.6|
1,1,3.2|
1,2,6.4|
1,3,8.3|
1,4,0.28|
1,5,4.5|
1,6,3.5|
1,7,8.3|
2,0,7.5|
2,1,2.8|
2,2,1.7|
2,3,1.5|
2,4,0.43|
2,5,8.6|
2,6,7.7|
2,7,2.3|
3,0,6.6|
3,1,9.5|
3,2,1.7|
3,3,8.9|
3,4,1.8|
3,5,5.1|
3,6,0.65|
3,7,3.4|
4,0,0.85|
4,1,1.4|
4,2,4.2|
4,3,8.4|
4,4,7.8|
4,5,3.1|
4,6,0.91|
4,7,3.9|
5,0,8.6|
5,1,5|
5,2,2.5|
5,3,9|
5,4,5.3|
5,5,9.8|
5,6,1.6|
5,7,1.2|
6,0,3.7|
6,1,3.5|
6,2,8.6|
6,3,2.3|
6,4,0.83|
6,5,0.51|
6,6,2.6|
6,7,2.5|
7,0,0.3|
7,1,7.2|
7,2,7.2|
7,3,8.5|
7,4,9.8|
7,5,8.5|
7,6,8.9|
7,7,4.2|
];
constraint_x11_x10=[
0,0,5.6|
0,1,5.3|
0,2,5|
0,3,0.73|
0,4,4.8|
0,5,4.1|
0,6,1.9|
0,7,0.54|
1,0,4.7|
1,1,5.9|
1,2,3.8|
1,3,1.5|
1,4,1.5|
1,5,9.5|
1,6,8.5|
1,7,9|
2,0,3|
2,1,7.7|
2,2,3.3|
2,3,3.7|
2,4,7.6|
2,5,1.2|
2,6,7.9|
2,7,6.9|
3,0,3.4|
3,1,2.9|
3,2,6.3|
3,3,8.7|
3,4,2.4|
3,5,0.93|
3,6,7.4|
3,7,5|
4,0,5.9|
4,1,3.1|
4,2,7|
4,3,7.2|
4,4,8.9|
4,5,0.4|
4,6,8.5|
4,7,5.7|
5,0,7.4|
5,1,6|
5,2,6.1|
5,3,2.5|
5,4,8.9|
5,5,2.6|
5,6,1.6|
5,7,5|
6,0,7.3|
6,1,8.3|
6,2,5.9|
6,3,1.8|
6,4,1|
6,5,2.9|
6,6,1.8|
6,7,3.2|
7,0,6|
7,1,3.5|
7,2,8.8|
7,3,7|
7,4,2.5|
7,5,7.7|
7,6,0.062|
7,7,9.9|
];
constraint_x12_x8=[
0,0,7.2|
0,1,2|
0,2,9.9|
0,3,6.9|
0,4,0.63|
0,5,5.1|
0,6,0.62|
0,7,5.8|
1,0,1.6|
1,1,0.34|
1,2,1.4|
1,3,2.8|
1,4,1.5|
1,5,1.2|
1,6,5.9|
1,7,6.6|
2,0,7.6|
2,1,1.8|
2,2,0.84|
2,3,9.9|
2,4,7.7|
2,5,7.3|
2,6,4|
2,7,3.4|
3,0,0.45|
3,1,5.8|
3,2,7.6|
3,3,3.5|
3,4,2.5|
3,5,8.9|
3,6,0.26|
3,7,1.4|
4,0,1.4|
4,1,9|
4,2,4.7|
4,3,4.3|
4,4,7.2|
4,5,0.33|
4,6,0.99|
4,7,1.1|
5,0,9.2|
5,1,0.73|
5,2,9.3|
5,3,8.8|
5,4,7|
5,5,7.9|
5,6,9.6|
5,7,6.1|
6,0,0.14|
6,1,2.7|
6,2,7.6|
6,3,2.6|
6,4,3.4|
6,5,0.11|
6,6,0.12|
6,7,0.11|
7,0,0.35|
7,1,2.8|
7,2,6|
7,3,0.7|
7,4,6.2|
7,5,9.1|
7,6,0.4|
7,7,1.3|
];
constraint_x12_x11=[
0,0,5.1|
0,1,6|
0,2,7.9|
0,3,5.6|
0,4,8.1|
0,5,7.2|
0,6,3.9|
0,7,2.7|
1,0,1.3|
1,1,0.51|
1,2,4.9|
1,3,1.9|
1,4,8.5|
1,5,3.9|
1,6,9.7|
1,7,4.6|
2,0,7.8|
2,1,1|
2,2,8.9|
2,3,1.5|
2,4,3.3|
2,5,7.7|
2,6,0.38|
2,7,9.2|
3,0,0.25|
3,1,7.4|
3,2,6.8|
3,3,4.1|
3,4,2.1|
3,5,3.8|
3,6,1.5|
3,7,0.75|
4,0,8.4|
4,1,7.4|
4,2,1.7|
4,3,2.3|
4,4,2|
4,5,2.1|
4,6,6.3|
4,7,1.4|
5,0,8.1|
5,1,2.5|
5,2,4.4|
5,3,0.88|
5,4,5.5|
5,5,7.5|
5,6,7.6|
5,7,0.92|
6,0,9.9|
6,1,2.1|
6,2,7.6|
6,3,5.2|
6,4,6.1|
6,5,6.9|
6,6,6.1|
6,7,7.7|
7,0,9.3|
7,1,6.4|
7,2,8|
7,3,2.4|
7,4,9.1|
7,5,3.7|
7,6,8.5|
7,7,8.4|
];
constraint_x13_x9=[
0,0,0.83|
0,1,7.9|
0,2,6.3|
0,3,4.6|
0,4,2.8|
0,5,8.7|
0,6,6.7|
0,7,8.9|
1,0,8.3|
1,1,1.6|
1,2,1|
1,3,9.2|
1,4,3.4|
1,5,0.47|
1,6,3.9|
1,7,4.6|
2,0,9.1|
2,1,0.2|
2,2,8.7|
2,3,1.2|
2,4,3.1|
2,5,6.9|
2,6,2.7|
2,7,8.2|
3,0,6.6|
3,1,0.91|
3,2,7|
3,3,7.2|
3,4,7.1|
3,5,0.3|
3,6,3.3|
3,7,2.5|
4,0,4.7|
4,1,3.2|
4,2,8.1|
4,3,0.67|
4,4,5|
4,5,5.5|
4,6,8.4|
4,7,0.56|
5,0,7.8|
5,1,7.4|
5,2,5.3|
5,3,2.1|
5,4,4.2|
5,5,3.4|
5,6,2.7|
5,7,9.7|
6,0,3.4|
6,1,2.5|
6,2,4.8|
6,3,8.7|
6,4,10|
6,5,2.2|
6,6,8.8|
6,7,2.2|
7,0,1.6|
7,1,9.2|
7,2,0.16|
7,3,0.69|
7,4,7.1|
7,5,2.1|
7,6,1.7|
7,7,8.7|
];
constraint_x14_x10=[
0,0,7.1|
0,1,9.8|
0,2,4.7|
0,3,5.7|
0,4,3.9|
0,5,8.4|
0,6,2|
0,7,0.61|
1,0,5.7|
1,1,6.2|
1,2,1.7|
1,3,0.95|
1,4,1.2|
1,5,4.6|
1,6,9.3|
1,7,6.5|
2,0,8.2|
2,1,5.5|
2,2,1.5|
2,3,1.3|
2,4,2|
2,5,7.7|
2,6,6.1|
2,7,3.6|
3,0,1.1|
3,1,1.4|
3,2,2.4|
3,3,0.76|
3,4,1.4|
3,5,1.1|
3,6,1.6|
3,7,7.4|
4,0,6.5|
4,1,6.3|
4,2,7.6|
4,3,2.6|
4,4,8.1|
4,5,1.1|
4,6,9.8|
4,7,9.9|
5,0,4.5|
5,1,7.2|
5,2,4.1|
5,3,2.1|
5,4,7.2|
5,5,7.5|
5,6,0.55|
5,7,0.6|
6,0,9.4|
6,1,4.6|
6,2,9.9|
6,3,8.8|
6,4,9.5|
6,5,7.2|
6,6,9|
6,7,9.7|
7,0,7.3|
7,1,6.1|
7,2,4.1|
7,3,6.3|
7,4,7.4|
7,5,1.6|
7,6,4.4|
7,7,1.2|
];
constraint_x14_x13=[
0,0,7.5|
0,1,2.1|
0,2,9.4|
0,3,7|
0,4,0.46|
0,5,7.8|
0,6,4.2|
0,7,9.7|
1,0,2.9|
1,1,7.4|
1,2,9|
1,3,9.3|
1,4,0.97|
1,5,7.8|
1,6,9.6|
1,7,3.2|
2,0,8.4|
2,1,8.4|
2,2,1.3|
2,3,7|
2,4,9.7|
2,5,5|
2,6,4|
2,7,8.9|
3,0,2.3|
3,1,0.03|
3,2,0.16|
3,3,6|
3,4,0.68|
3,5,7.2|
3,6,8.3|
3,7,3.4|
4,0,2.4|
4,1,2.4|
4,2,1.6|
4,3,7.4|
4,4,7.4|
4,5,0.97|
4,6,4.8|
4,7,1.8|
5,0,0.5|
5,1,5.6|
5,2,8.1|
5,3,2.7|
5,4,8.8|
5,5,9.6|
5,6,4.1|
5,7,4.9|
6,0,2.6|
6,1,9.6|
6,2,1.3|
6,3,5.3|
6,4,5.1|
6,5,2.8|
6,6,2.8|
6,7,7.4|
7,0,6.4|
7,1,2.1|
7,2,0.74|
7,3,9.1|
7,4,5.6|
7,5,8.2|
7,6,0.41|
7,7,7.3|
];
constraint_x15_x11=[
0,0,4.7|
0,1,3|
0,2,6.8|
0,3,5.9|
0,4,6.4|
0,5,9.9|
0,6,6.4|
0,7,1.9|
1,0,2.1|
1,1,2.1|
1,2,6.4|
1,3,6.7|
1,4,2.9|
1,5,8|
1,6,3|
1,7,8.8|
2,0,2.2|
2,1,2|
2,2,6.4|
2,3,4.1|
2,4,1.8|
2,5,5.1|
2,6,8.7|
2,7,5.8|
3,0,7.2|
3,1,3.2|
3,2,9.8|
3,3,3.8|
3,4,6.6|
3,5,5.9|
3,6,9|
3,7,3|
4,0,2.1|
4,1,5|
4,2,9|
4,3,1.3|
4,4,7.4|
4,5,6.1|
4,6,0.92|
4,7,6.1|
5,0,6.2|
5,1,4.2|
5,2,6.2|
5,3,3.1|
5,4,6.7|
5,5,2.2|
5,6,5.6|
5,7,5.4|
6,0,7.7|
6,1,0.15|
6,2,5.3|
6,3,6.7|
6,4,1.6|
6,5,9.7|
6,6,1.1|
6,7,4.8|
7,0,4.8|
7,1,9.7|
7,2,8.3|
7,3,6.3|
7,4,3|
7,5,1.4|
7,6,0.19|
7,7,10|
];
constraint_x15_x14=[
0,0,7|
0,1,2.1|
0,2,6.7|
0,3,1.5|
0,4,1.6|
0,5,9.5|
0,6,3.3|
0,7,9.1|
1,0,3.1|
1,1,0.097|
1,2,5.5|
1,3,4.3|
1,4,5.4|
1,5,5.8|
1,6,2.7|
1,7,4.7|
2,0,2.9|
2,1,8.2|
2,2,1.6|
2,3,6.7|
2,4,7.8|
2,5,2.1|
2,6,4.7|
2,7,7|
3,0,0.2|
3,1,2.5|
3,2,5.2|
3,3,7.6|
3,4,2.7|
3,5,2|
3,6,0.56|
3,7,8|
4,0,3.9|
4,1,9.7|
4,2,7.1|
4,3,2.2|
4,4,5.4|
4,5,4.3|
4,6,7.4|
4,7,7.9|
5,0,0.018|
5,1,0.015|
5,2,1.1|
5,3,3.3|
5,4,8.9|
5,5,9.4|
5,6,0.5|
5,7,5.7|
6,0,7.7|
6,1,5.6|
6,2,7.2|
6,3,0.4|
6,4,1.2|
6,5,9|
6,6,3.8|
6,7,3.6|
7,0,1.8|
7,1,3.5|
7,2,4.5|
7,3,6.4|
7,4,8.6|
7,5,0.63|
7,6,1.1|
7,7,0.53|
];
constraint_x16_x12=[
0,0,9.6|
0,1,0.71|
0,2,3|
0,3,2.8|
0,4,7.9|
0,5,0.74|
0,6,7.4|
0,7,1.1|
1,0,5.2|
1,1,5.2|
1,2,9.6|
1,3,1.7|
1,4,9.2|
1,5,4.5|
1,6,7.4|
1,7,5|
2,0,8.5|
2,1,5.9|
2,2,3.4|
2,3,3.8|
2,4,6.6|
2,5,4.2|
2,6,3.3|
2,7,4.2|
3,0,7.5|
3,1,4.9|
3,2,7.3|
3,3,0.31|
3,4,6.9|
3,5,9.6|
3,6,6|
3,7,6.6|
4,0,2.1|
4,1,8.1|
4,2,1.9|
4,3,5.8|
4,4,8.2|
4,5,0.18|
4,6,7.8|
4,7,1.8|
5,0,3.7|
5,1,5.1|
5,2,9.1|
5,3,6.5|
5,4,9.1|
5,5,3.1|
5,6,1.4|
5,7,9.5|
6,0,5.9|
6,1,0.96|
6,2,3.2|
6,3,10|
6,4,0.82|
6,5,3.6|
6,6,1.9|
6,7,1.2|
7,0,8.8|
7,1,6.4|
7,2,4.2|
7,3,9.7|
7,4,7.1|
7,5,4.8|
7,6,1.9|
7,7,4.5|
];
constraint_x16_x15=[
0,0,6.6|
0,1,3.4|
0,2,1.4|
0,3,8.3|
0,4,8.2|
0,5,7.1|
0,6,5.8|
0,7,1.6|
1,0,7.7|
1,1,2.1|
1,2,8.9|
1,3,3.1|
1,4,3|
1,5,8.2|
1,6,9.5|
1,7,2.4|
2,0,8.7|
2,1,7.1|
2,2,4.9|
2,3,5.6|
2,4,1.9|
2,5,0.2|
2,6,1.9|
2,7,4.4|
3,0,8.1|
3,1,1.8|
3,2,5.4|
3,3,3.6|
3,4,1.5|
3,5,1.6|
3,6,2.9|
3,7,9.4|
4,0,7.1|
4,1,8.9|
4,2,8.8|
4,3,0.19|
4,4,1.9|
4,5,7.4|
4,6,6.2|
4,7,8.9|
5,0,0.27|
5,1,7.5|
5,2,5.3|
5,3,5.1|
5,4,5|
5,5,8.8|
5,6,0.075|
5,7,5.4|
6,0,0.47|
6,1,2.2|
6,2,5.9|
6,3,6|
6,4,0.11|
6,5,9|
6,6,0.6|
6,7,8.7|
7,0,3.7|
7,1,0.96|
7,2,4.8|
7,3,9.7|
7,4,4.1|
7,5,9.1|
7,6,3.5|
7,7,6.8|
];
constraint_x17_x13=[
0,0,3.5|
0,1,9.1|
0,2,6.8|
0,3,1.2|
0,4,3.2|
0,5,0.015|
0,6,4.9|
0,7,7.1|
1,0,2.9|
1,1,8.6|
1,2,3.2|
1,3,0.92|
1,4,9|
1,5,8.7|
1,6,2.5|
1,7,2.5|
2,0,5.1|
2,1,5.5|
2,2,5.3|
2,3,5.7|
2,4,9|
2,5,5.4|
2,6,7.2|
2,7,7.6|
3,0,6.2|
3,1,6.6|
3,2,7.8|
3,3,5.3|
3,4,9.6|
3,5,0.11|
3,6,2.2|
3,7,2.7|
4,0,5.2|
4,1,4.6|
4,2,9.9|
4,3,2.6|
4,4,6.9|
4,5,9.4|
4,6,1.3|
4,7,8.9|
5,0,6.5|
5,1,9.6|
5,2,3.8|
5,3,6.8|
5,4,3.9|
5,5,5|
5,6,9.9|
5,7,6.6|
6,0,4.7|
6,1,4.1|
6,2,9.6|
6,3,0.58|
6,4,7.3|
6,5,4.8|
6,6,6.2|
6,7,2.8|
7,0,7.7|
7,1,1.7|
7,2,8.7|
7,3,3.4|
7,4,6.9|
7,5,6.1|
7,6,3.8|
7,7,3.2|
];
constraint_x18_x14=[
0,0,0.57|
0,1,2.1|
0,2,3.8|
0,3,9.1|
0,4,1.3|
0,5,4.9|
0,6,0.075|
0,7,1.4|
1,0,0.37|
1,1,3.1|
1,2,1.3|
1,3,3.6|
1,4,2.9|
1,5,2.5|
1,6,8.4|
1,7,9.9|
2,0,5.8|
2,1,3.1|
2,2,5.1|
2,3,6.1|
2,4,7.3|
2,5,9.9|
2,6,7.2|
2,7,2.1|
3,0,9.1|
3,1,3.8|
3,2,1.9|
3,3,6.3|
3,4,6.6|
3,5,5.1|
3,6,6|
3,7,2.4|
4,0,3.6|
4,1,5.2|
4,2,2.4|
4,3,5.4|
4,4,3.8|
4,5,1.8|
4,6,7.5|
4,7,5.7|
5,0,7.9|
5,1,9.4|
5,2,1.8|
5,3,5.6|
5,4,9.5|
5,5,7.1|
5,6,1.7|
5,7,9.3|
6,0,6.6|
6,1,8.5|
6,2,0.43|
6,3,8.6|
6,4,7.2|
6,5,3.5|
6,6,3.3|
6,7,4.8|
7,0,0.36|
7,1,7.4|
7,2,8.5|
7,3,4.2|
7,4,8.9|
7,5,5.1|
7,6,8.5|
7,7,4.1|
];
constraint_x1_y1=[
0,0,2|
0,1,6|
0,2,1.8|
0,3,4.9|
0,4,7.6|
0,5,6.9|
0,6,4.7|
0,7,4.3|
1,0,8.7|
1,1,10|
1,2,7.1|
1,3,0.79|
1,4,1.4|
1,5,3.1|
1,6,3.6|
1,7,6.2|
2,0,4|
2,1,2.8|
2,2,4|
2,3,4.4|
2,4,2.6|
2,5,1.3|
2,6,4.7|
2,7,0.22|
3,0,6.6|
3,1,4.9|
3,2,7.7|
3,3,9|
3,4,8.3|
3,5,7|
3,6,9.8|
3,7,9.9|
4,0,9.7|
4,1,9.9|
4,2,7.3|
4,3,6.7|
4,4,6.5|
4,5,0.86|
4,6,9.4|
4,7,10|
5,0,8.2|
5,1,4.3|
5,2,5.6|
5,3,6.9|
5,4,3.7|
5,5,1.8|
5,6,0.96|
5,7,7.1|
6,0,9.3|
6,1,0.98|
6,2,1.8|
6,3,8.8|
6,4,3.3|
6,5,8|
6,6,9.3|
6,7,9.3|
7,0,2.6|
7,1,8.9|
7,2,1|
7,3,3.8|
7,4,2.8|
7,5,6.5|
7,6,3.2|
7,7,3.3|
];
constraint_x2_y2=[
0,0,4.6|
0,1,0.25|
0,2,8.3|
0,3,0.33|
0,4,2.5|
0,5,9.7|
0,6,1.1|
0,7,1.8|
1,0,0.83|
1,1,1.2|
1,2,4.7|
1,3,5.3|
1,4,1.2|
1,5,0.54|
1,6,2.4|
1,7,6.9|
2,0,6.3|
2,1,2.9|
2,2,3.7|
2,3,2.1|
2,4,1.5|
2,5,9.2|
2,6,6.9|
2,7,6.8|
3,0,5|
3,1,7.3|
3,2,0.74|
3,3,7.4|
3,4,0.55|
3,5,5.9|
3,6,2.6|
3,7,6.8|
4,0,2.6|
4,1,8.1|
4,2,6|
4,3,7.9|
4,4,6.6|
4,5,8.6|
4,6,9.3|
4,7,0.021|
5,0,6.9|
5,1,2.8|
5,2,0.37|
5,3,2.3|
5,4,4.4|
5,5,8.2|
5,6,5.9|
5,7,4.2|
6,0,0.12|
6,1,6.7|
6,2,5.9|
6,3,1.8|
6,4,4.9|
6,5,1.7|
6,6,0.13|
6,7,2.1|
7,0,9|
7,1,8.4|
7,2,0.17|
7,3,2.1|
7,4,4.1|
7,5,5.9|
7,6,3.5|
7,7,1.2|
];
constraint_x3_y3=[
0,0,4.4|
0,1,8.4|
0,2,0.52|
0,3,2.5|
0,4,9.2|
0,5,2.2|
0,6,9.4|
0,7,5|
1,0,4|
1,1,3.1|
1,2,2|
1,3,2.4|
1,4,5.5|
1,5,4.2|
1,6,5.4|
1,7,9.6|
2,0,4.8|
2,1,8.7|
2,2,8.9|
2,3,7.4|
2,4,7.7|
2,5,0.22|
2,6,0.74|
2,7,8|
3,0,4.9|
3,1,3.6|
3,2,2.8|
3,3,1.9|
3,4,3.4|
3,5,9.9|
3,6,1.7|
3,7,8.4|
4,0,6.7|
4,1,0.063|
4,2,1.6|
4,3,6.5|
4,4,0.93|
4,5,3.9|
4,6,0.92|
4,7,1.4|
5,0,0.78|
5,1,0.2|
5,2,4.9|
5,3,3.7|
5,4,2.2|
5,5,2.5|
5,6,2.4|
5,7,6|
6,0,0.96|
6,1,8.4|
6,2,1.6|
6,3,6|
6,4,9|
6,5,8.9|
6,6,3.8|
6,7,2|
7,0,10|
7,1,3.6|
7,2,6.7|
7,3,7|
7,4,0.92|
7,5,3.3|
7,6,4.9|
7,7,3.3|
];
constraint_x4_y4=[
0,0,1.8|
0,1,1.5|
0,2,1|
0,3,6.9|
0,4,1.9|
0,5,4.6|
0,6,4.7|
0,7,8.1|
1,0,3.1|
1,1,10|
1,2,9.2|
1,3,4.1|
1,4,2.8|
1,5,7.7|
1,6,9.7|
1,7,3.7|
2,0,2.5|
2,1,0.65|
2,2,0.91|
2,3,9|
2,4,7.6|
2,5,3|
2,6,0.49|
2,7,3|
3,0,0.76|
3,1,0.81|
3,2,6.6|
3,3,2.2|
3,4,6.5|
3,5,6.8|
3,6,8.2|
3,7,6.5|
4,0,6.3|
4,1,1.7|
4,2,6.4|
4,3,8.3|
4,4,0.39|
4,5,5|
4,6,8.6|
4,7,8.7|
5,0,0.86|
5,1,1.3|
5,2,5|
5,3,4.9|
5,4,1.1|
5,5,4.3|
5,6,6.7|
5,7,4.9|
6,0,2|
6,1,6.7|
6,2,0.34|
6,3,8.4|
6,4,1.4|
6,5,4.4|
6,6,0.7|
6,7,0.97|
7,0,5.3|
7,1,2.7|
7,2,7.5|
7,3,5.7|
7,4,4.2|
7,5,7.7|
7,6,9.8|
7,7,2.3|
];
constraint_x5_y5=[
0,0,6.1|
0,1,7.3|
0,2,8.1|
0,3,7.4|
0,4,2.3|
0,5,0.27|
0,6,8.1|
0,7,0.84|
1,0,6.9|
1,1,1.1|
1,2,8.9|
1,3,3.6|
1,4,8.4|
1,5,8.1|
1,6,9.4|
1,7,3.2|
2,0,5|
2,1,1.9|
2,2,2.2|
2,3,3.8|
2,4,1.8|
2,5,7.4|
2,6,0.29|
2,7,4.6|
3,0,7.7|
3,1,0.024|
3,2,7.3|
3,3,6.4|
3,4,1.1|
3,5,2.4|
3,6,5|
3,7,0.4|
4,0,9.2|
4,1,2.3|
4,2,3.1|
4,3,4.2|
4,4,4.5|
4,5,4.8|
4,6,4.4|
4,7,7.1|
5,0,1.6|
5,1,5.4|
5,2,7.7|
5,3,6.3|
5,4,4.8|
5,5,2|
5,6,1.2|
5,7,5.3|
6,0,5.9|
6,1,6|
6,2,3.2|
6,3,4.9|
6,4,4.2|
6,5,4|
6,6,3.4|
6,7,1.4|
7,0,4.7|
7,1,6.7|
7,2,7.2|
7,3,8.6|
7,4,0.59|
7,5,2.3|
7,6,4.9|
7,7,8.2|
];
constraint_x6_y6=[
0,0,0.85|
0,1,5.9|
0,2,3|
0,3,6|
0,4,2.7|
0,5,9.3|
0,6,5|
0,7,2.5|
1,0,9.3|
1,1,3.3|
1,2,3|
1,3,3.3|
1,4,1.8|
1,5,5.2|
1,6,3.9|
1,7,4.3|
2,0,5.4|
2,1,9.7|
2,2,4.6|
2,3,1.2|
2,4,7|
2,5,1.3|
2,6,6.1|
2,7,7.9|
3,0,7.8|
3,1,6.4|
3,2,9.9|
3,3,4.5|
3,4,9.5|
3,5,3.1|
3,6,3.9|
3,7,1.2|
4,0,2.9|
4,1,2.3|
4,2,4.8|
4,3,7.4|
4,4,4.2|
4,5,0.69|
4,6,8.4|
4,7,3.7|
5,0,4.7|
5,1,8.6|
5,2,8.5|
5,3,3.9|
5,4,0.048|
5,5,0.88|
5,6,3|
5,7,2.6|
6,0,2.7|
6,1,1.8|
6,2,2.6|
6,3,5.8|
6,4,4.1|
6,5,9.5|
6,6,5.9|
6,7,2.9|
7,0,8.1|
7,1,8.4|
7,2,0.84|
7,3,2.3|
7,4,1.1|
7,5,7.6|
7,6,6|
7,7,4.4|
];
constraint_x7_y7=[
0,0,0.18|
0,1,5.6|
0,2,0.3|
0,3,3.6|
0,4,5.4|
0,5,2.2|
0,6,4.9|
0,7,9.9|
1,0,0.21|
1,1,1.2|
1,2,8.1|
1,3,8.2|
1,4,8.1|
1,5,6.4|
1,6,8.3|
1,7,3.5|
2,0,8.2|
2,1,1.3|
2,2,3.2|
2,3,8.6|
2,4,5.2|
2,5,5|
2,6,7.9|
2,7,1.1|
3,0,0.48|
3,1,7.4|
3,2,1.6|
3,3,4.7|
3,4,4.6|
3,5,0.3|
3,6,0.94|
3,7,1.2|
4,0,2.7|
4,1,1.2|
4,2,4.9|
4,3,10|
4,4,6.7|
4,5,2|
4,6,0.16|
4,7,1.5|
5,0,9|
5,1,9.3|
5,2,3.3|
5,3,9.3|
5,4,7.3|
5,5,4.6|
5,6,4|
5,7,1.6|
6,0,0.71|
6,1,1.4|
6,2,4|
6,3,2|
6,4,8.8|
6,5,9.6|
6,6,3.2|
6,7,8.6|
7,0,6.3|
7,1,6|
7,2,6.9|
7,3,5.2|
7,4,0.66|
7,5,2.4|
7,6,3.9|
7,7,2.4|
];
constraint_x8_y8=[
0,0,10|
0,1,4.4|
0,2,1.7|
0,3,7.7|
0,4,3.2|
0,5,5.9|
0,6,9.2|
0,7,7.1|
1,0,2|
1,1,3.9|
1,2,3|
1,3,5.2|
1,4,2.5|
1,5,9.9|
1,6,2.7|
1,7,6|
2,0,4.8|
2,1,9.3|
2,2,3.7|
2,3,6.4|
2,4,9.3|
2,5,8|
2,6,6.4|
2,7,8.2|
3,0,9.3|
3,1,3.1|
3,2,7.4|
3,3,1.6|
3,4,7.8|
3,5,1.5|
3,6,0.84|
3,7,4.8|
4,0,2.8|
4,1,0.55|
4,2,6.3|
4,3,2.7|
4,4,9.6|
4,5,0.53|
4,6,3.8|
4,7,8.7|
5,0,9.7|
5,1,5.6|
5,2,8.4|
5,3,9.2|
5,4,4.7|
5,5,9.2|
5,6,6.8|
5,7,8.8|
6,0,1.4|
6,1,5.4|
6,2,0.055|
6,3,2.9|
6,4,2.9|
6,5,8|
6,6,0.95|
6,7,1.8|
7,0,0.39|
7,1,7.3|
7,2,3.1|
7,3,4.7|
7,4,0.71|
7,5,9.7|
7,6,9.2|
7,7,9|
];
initial_distribution_y1=[0.16,0.16,0.14,0.11,0.14,0.079,0.009,0.2];
initial_distribution_y2=[0.05,0.19,0.07,0.16,0.14,0.065,0.21,0.12];
initial_distribution_y3=[0.064,0.13,0.037,0.16,0.059,0.17,0.18,0.21];
initial_distribution_y4=[0.11,0.066,0.15,0.23,0.19,0.0063,0.21,0.026];
initial_distribution_y5=[0.15,0.052,0.097,0.12,0.076,0.13,0.27,0.11];
initial_distribution_y6=[0.23,0.16,0.15,0.11,0.08,0.099,0.028,0.14];
initial_distribution_y7=[0.18,0.076,0.11,0.13,0.16,0.14,0.15,0.041];
initial_distribution_y8=[0.046,0.23,0.085,0.24,0.16,0.012,0.024,0.21];
transition_y1=[
0.015,0.012,0.15,0.17,0.21,0.098,0.21,0.14|
0.16,0.11,0.13,0.1,0.1,0.11,0.083,0.21|
0.014,0.29,0.29,0.089,0.14,0.1,0.053,0.02|
0.11,0.18,0.2,0.1,0.065,0.064,0.14,0.14|
0.13,0.14,0.13,0.12,0.18,0.1,0.17,0.031|
0.21,0.021,0.13,0.14,0.045,0.15,0.17,0.13|
0.22,0.013,0.19,0.26,0.2,0.042,0.073,0.0098|
0.16,0.17,0.13,0.15,0.044,0.13,0.078,0.15|
];
transition_y2=[
0.13,0.14,0.085,0.18,0.2,0.1,0.15,0.021|
0.017,0.092,0.26,0.014,0.14,0.075,0.21,0.2|
0.15,0.11,0.077,0.16,0.12,0.14,0.14,0.1|
0.17,0.22,0.099,0.032,0.11,0.12,0.16,0.081|
0.021,0.11,0.12,0.24,0.11,0.11,0.28,0.013|
0.1,0.22,0.041,0.042,0.063,0.1,0.2,0.22|
0.23,0.2,0.25,0.029,0.018,0.22,0.029,0.013|
0.27,0.13,0.25,0.086,0.013,0.055,0.091,0.1|
];
transition_y3=[
0.0042,0.0097,0.14,0.046,0.25,0.22,0.19,0.14|
0.083,0.065,0.07,0.19,0.045,0.17,0.19,0.19|
0.25,0.25,0.16,0.016,0.25,0.0042,0.036,0.03|
0.039,0.061,0.19,0.07,0.22,0.095,0.11,0.22|
0.049,0.22,0.07,0.31,0.14,0.035,0.013,0.16|
0.082,0.18,0.21,0.13,0.15,0.029,0.0039,0.21|
0.06,0.18,0.13,0.13,0.099,0.13,0.1,0.17|
0.0065,0.11,0.21,0.0089,0.083,0.18,0.18,0.22|
];
transition_y4=[
0.028,0.18,0.14,0.2,0.19,0.098,0.056,0.11|
0.2,0.091,0.22,0.14,0.17,0.048,0.1,0.029|
0.17,0.13,0.13,0.045,0.18,0.16,0.029,0.16|
0.13,0.042,0.067,0.18,0.19,0.092,0.16,0.13|
0.031,0.23,0.079,0.078,0.35,0.011,0.045,0.18|
0.04,0.21,0.19,0.055,0.17,0.2,0.019,0.11|
0.24,0.1,0.11,0.052,0.097,0.068,0.023,0.31|
0.038,0.037,0.29,0.14,0.07,0.084,0.11,0.23|
];
transition_y5=[
0.2,0.098,0.2,0.047,0.16,0.036,0.07,0.19|
0.064,0.17,0.097,0.062,0.2,0.094,0.21,0.11|
0.16,0.28,0.17,0.026,0.085,0.046,0.1,0.12|
0.17,0.12,0.16,0.095,0.11,0.11,0.12,0.12|
0.028,0.03,0.11,0.048,0.19,0.096,0.28,0.22|
0.085,0.18,0.21,0.13,0.039,0.12,0.091,0.15|
0.09,0.11,0.2,0.075,0.072,0.22,0.12,0.12|
0.11,0.19,0.2,0.023,0.18,0.11,0.0057,0.19|
];
transition_y6=[
0.16,0.14,0.054,0.1,0.014,0.18,0.18,0.16|
0.21,0.12,0.039,0.052,0.19,0.16,0.066,0.16|
0.16,0.0095,0.13,0.044,0.19,0.17,0.19,0.11|
0.15,0.035,0.26,0.015,0.17,0.18,0.16,0.032|
0.19,0.16,0.037,0.019,0.025,0.24,0.17,0.16|
0.09,0.3,0.23,0.21,0.014,0.083,0.05,0.027|
0.0067,0.18,0.2,0.1,0.13,0.065,0.16,0.16|
0.21,0.19,0.043,0.065,0.14,0.18,0.064,0.11|
];
transition_y7=[
0.15,0.087,0.03,0.028,0.24,0.088,0.17,0.21|
0.027,0.15,0.049,0.21,0.2,0.15,0.039,0.17|
0.13,0.045,0.08,0.2,0.17,0.025,0.13,0.22|
0.24,0.091,0.11,0.082,0.15,0.1,0.17,0.048|
0.18,0.05,0.061,0.18,0.064,0.18,0.18,0.099|
0.13,0.13,0.24,0.057,0.12,0.069,0.16,0.086|
0.17,0.15,0.16,0.0074,0.16,0.21,0.088,0.063|
0.31,0.0096,0.017,0.0066,0.052,0.37,0.13,0.095|
];
transition_y8=[
0.12,0.2,0.15,0.19,0.0023,0.2,0.12,0.021|
0.076,0.18,0.092,0.0072,0.13,0.19,0.2,0.13|
0.1,0.12,0.083,0.097,0.23,0.09,0.25,0.021|
0.17,0.056,0.22,0.036,0.15,0.12,0.042,0.21|
0.18,0.19,0.14,0.048,0.024,0.22,0.046,0.15|
0.03,0.2,0.0079,0.091,0.2,0.17,0.19,0.12|
0.029,0.19,0.11,0.14,0.086,0.17,0.21,0.069|
0.13,0.12,0.17,0.13,0.061,0.079,0.17,0.13|
];
